c This is a pigeonhole problem with 8 pigeons and 7 holes
p cnf 8 196
d 1 7
d 2 7
d 3 7
d 4 7
d 5 7
d 6 7
d 7 7
d 8 7
2!=0 1!=0 0
3!=0 1!=0 0
3!=0 2!=0 0
4!=0 1!=0 0
4!=0 2!=0 0
4!=0 3!=0 0
5!=0 1!=0 0
5!=0 2!=0 0
5!=0 3!=0 0
5!=0 4!=0 0
6!=0 1!=0 0
6!=0 2!=0 0
6!=0 3!=0 0
6!=0 4!=0 0
6!=0 5!=0 0
7!=0 1!=0 0
7!=0 2!=0 0
7!=0 3!=0 0
7!=0 4!=0 0
7!=0 5!=0 0
7!=0 6!=0 0
8!=0 1!=0 0
8!=0 2!=0 0
8!=0 3!=0 0
8!=0 4!=0 0
8!=0 5!=0 0
8!=0 6!=0 0
8!=0 7!=0 0
2!=1 1!=1 0
3!=1 1!=1 0
3!=1 2!=1 0
4!=1 1!=1 0
4!=1 2!=1 0
4!=1 3!=1 0
5!=1 1!=1 0
5!=1 2!=1 0
5!=1 3!=1 0
5!=1 4!=1 0
6!=1 1!=1 0
6!=1 2!=1 0
6!=1 3!=1 0
6!=1 4!=1 0
6!=1 5!=1 0
7!=1 1!=1 0
7!=1 2!=1 0
7!=1 3!=1 0
7!=1 4!=1 0
7!=1 5!=1 0
7!=1 6!=1 0
8!=1 1!=1 0
8!=1 2!=1 0
8!=1 3!=1 0
8!=1 4!=1 0
8!=1 5!=1 0
8!=1 6!=1 0
8!=1 7!=1 0
2!=2 1!=2 0
3!=2 1!=2 0
3!=2 2!=2 0
4!=2 1!=2 0
4!=2 2!=2 0
4!=2 3!=2 0
5!=2 1!=2 0
5!=2 2!=2 0
5!=2 3!=2 0
5!=2 4!=2 0
6!=2 1!=2 0
6!=2 2!=2 0
6!=2 3!=2 0
6!=2 4!=2 0
6!=2 5!=2 0
7!=2 1!=2 0
7!=2 2!=2 0
7!=2 3!=2 0
7!=2 4!=2 0
7!=2 5!=2 0
7!=2 6!=2 0
8!=2 1!=2 0
8!=2 2!=2 0
8!=2 3!=2 0
8!=2 4!=2 0
8!=2 5!=2 0
8!=2 6!=2 0
8!=2 7!=2 0
2!=3 1!=3 0
3!=3 1!=3 0
3!=3 2!=3 0
4!=3 1!=3 0
4!=3 2!=3 0
4!=3 3!=3 0
5!=3 1!=3 0
5!=3 2!=3 0
5!=3 3!=3 0
5!=3 4!=3 0
6!=3 1!=3 0
6!=3 2!=3 0
6!=3 3!=3 0
6!=3 4!=3 0
6!=3 5!=3 0
7!=3 1!=3 0
7!=3 2!=3 0
7!=3 3!=3 0
7!=3 4!=3 0
7!=3 5!=3 0
7!=3 6!=3 0
8!=3 1!=3 0
8!=3 2!=3 0
8!=3 3!=3 0
8!=3 4!=3 0
8!=3 5!=3 0
8!=3 6!=3 0
8!=3 7!=3 0
2!=4 1!=4 0
3!=4 1!=4 0
3!=4 2!=4 0
4!=4 1!=4 0
4!=4 2!=4 0
4!=4 3!=4 0
5!=4 1!=4 0
5!=4 2!=4 0
5!=4 3!=4 0
5!=4 4!=4 0
6!=4 1!=4 0
6!=4 2!=4 0
6!=4 3!=4 0
6!=4 4!=4 0
6!=4 5!=4 0
7!=4 1!=4 0
7!=4 2!=4 0
7!=4 3!=4 0
7!=4 4!=4 0
7!=4 5!=4 0
7!=4 6!=4 0
8!=4 1!=4 0
8!=4 2!=4 0
8!=4 3!=4 0
8!=4 4!=4 0
8!=4 5!=4 0
8!=4 6!=4 0
8!=4 7!=4 0
2!=5 1!=5 0
3!=5 1!=5 0
3!=5 2!=5 0
4!=5 1!=5 0
4!=5 2!=5 0
4!=5 3!=5 0
5!=5 1!=5 0
5!=5 2!=5 0
5!=5 3!=5 0
5!=5 4!=5 0
6!=5 1!=5 0
6!=5 2!=5 0
6!=5 3!=5 0
6!=5 4!=5 0
6!=5 5!=5 0
7!=5 1!=5 0
7!=5 2!=5 0
7!=5 3!=5 0
7!=5 4!=5 0
7!=5 5!=5 0
7!=5 6!=5 0
8!=5 1!=5 0
8!=5 2!=5 0
8!=5 3!=5 0
8!=5 4!=5 0
8!=5 5!=5 0
8!=5 6!=5 0
8!=5 7!=5 0
2!=6 1!=6 0
3!=6 1!=6 0
3!=6 2!=6 0
4!=6 1!=6 0
4!=6 2!=6 0
4!=6 3!=6 0
5!=6 1!=6 0
5!=6 2!=6 0
5!=6 3!=6 0
5!=6 4!=6 0
6!=6 1!=6 0
6!=6 2!=6 0
6!=6 3!=6 0
6!=6 4!=6 0
6!=6 5!=6 0
7!=6 1!=6 0
7!=6 2!=6 0
7!=6 3!=6 0
7!=6 4!=6 0
7!=6 5!=6 0
7!=6 6!=6 0
8!=6 1!=6 0
8!=6 2!=6 0
8!=6 3!=6 0
8!=6 4!=6 0
8!=6 5!=6 0
8!=6 6!=6 0
8!=6 7!=6 0
